# Solution for model r3_t18_m2_1
# Finished Task: 14 / 18
# Makespan: 672.0, Total Distance: 723.0, Total Time: 0.1406
# R O S F
0 0 4 0.0 0.0
1 1 7 0.0 0.0
2 2 10 0.0 0.0
3 -1 -1 -1.0 -1.0
4 0 8 284.0 318.0
5 -1 -1 -1.0 -1.0
6 -1 -1 -1.0 -1.0
7 1 16 121.0 159.0
8 0 19 425.0 458.0
9 1 17 464.0 491.0
10 2 20 179.0 212.0
11 2 -1 651.0 672.0
12 2 15 494.0 518.0
13 -1 -1 -1.0 -1.0
14 2 12 423.0 450.0
15 2 11 597.0 625.0
16 1 9 410.0 440.0
17 1 -1 586.0 613.0
18 2 14 345.0 379.0
19 0 -1 551.0 578.0
20 2 18 235.0 267.0
